sat
(:max-memory         18.72
 :memory             18.51
 :nlsat-arith-var    3
 :nlsat-atoms        18
 :nlsat-bool-var     1
 :nlsat-clauses      14
 :nlsat-conflicts    2
 :nlsat-decisions    2
 :nlsat-propagations 22
 :nlsat-stages       7
 :num-allocs         117780
 :rlimit-count       25687
 :time               0.02
 :total-time         0.03)
